GLPSOL--GLPK LP/MIP Solver 5.0
Parameter(s) specified in the command line:
 --lp ../modeles/15_84.lp --log 15_84.log
Reading problem data from '../modeles/15_84.lp'...
1321 rows, 2550 columns, 8865 non-zeros
1260 integer variables, all of which are binary
3892 lines were read
GLPK Integer Optimizer 5.0
1321 rows, 2550 columns, 8865 non-zeros
1260 integer variables, all of which are binary
Preprocessing...
1230 constraint coefficient(s) were reduced
1321 rows, 2535 columns, 8850 non-zeros
1260 integer variables, all of which are binary
Scaling...
 A: min|aij| =  2.268e-03  max|aij| =  4.000e+00  ratio =  1.764e+03
GM: min|aij| =  1.543e-01  max|aij| =  6.481e+00  ratio =  4.200e+01
EQ: min|aij| =  2.381e-02  max|aij| =  1.000e+00  ratio =  4.200e+01
2N: min|aij| =  1.814e-02  max|aij| =  1.723e+00  ratio =  9.496e+01
Constructing initial basis...
Size of triangular part is 1321
Solving LP relaxation...
GLPK Simplex Optimizer 5.0
1321 rows, 2535 columns, 8850 non-zeros
      0: obj =   3.000000000e+01 inf =   7.450e+01 (31)
    194: obj =  -5.969344309e-01 inf =   0.000e+00 (0)
*   577: obj =  -3.857142857e+00 inf =   1.185e-14 (0)
OPTIMAL LP SOLUTION FOUND
Integer optimization begins...
Long-step dual simplex will be used
+   577: mip =     not found yet >=              -inf        (1; 0)
+   577: >>>>>  -3.857142857e+00 >=  -3.857142857e+00   0.0% (1; 0)
+   577: mip =  -3.857142857e+00 >=     tree is empty   0.0% (0; 1)
INTEGER OPTIMAL SOLUTION FOUND
Time used:   0.0 secs
Memory used: 3.7 Mb (3908933 bytes)
